30
3 0 1
3 1 4
3 2 4
4 0 2
4 1 4
4 2 3
5 2 4
5 4 1
6 1 4
6 2 4
6 3 4
6 4 2
6 5 3
7 3 1
7 6 2
8 0 2
8 7 3
9 1 3
9 3 1
9 5 3
9 7 4
9 8 1
10 6 4
10 9 1
11 1 4
11 2 2
11 7 4
11 10 3
12 0 1
12 1 2
12 2 2
12 4 1
12 6 1
12 7 2
12 9 1
12 10 2
13 2 4
13 3 3
13 4 4
13 7 4
13 11 4
14 1 2
14 3 1
14 12 1
15 1 3
15 2 2
15 4 3
15 6 3
15 7 4
15 12 2
16 2 4
16 3 2
16 5 3
16 8 2
16 14 2
16 15 3
17 0 3
17 1 2
17 3 3
17 6 3
17 9 4
17 10 2
17 11 2
17 14 2
18 0 1
18 1 2
18 3 3
18 5 1
18 6 3
18 8 3
18 10 3
18 15 4
18 16 3
18 17 3
19 0 4
19 1 3
19 2 3
19 4 4
19 5 1
19 10 3
19 14 1
19 15 3
19 16 3
19 17 1
19 18 1
20 5 3
20 6 1
20 9 1
20 16 1
20 17 1
21 0 3
21 1 1
21 2 1
21 3 1
21 4 4
21 6 2
21 8 3
21 9 1
21 13 1
21 14 4
21 15 2
21 19 2
21 20 3
22 0 4
22 7 1
22 9 3
22 10 4
22 14 4
22 15 3
22 17 2
22 19 1
22 21 4
23 0 2
23 1 2
23 2 2
23 3 2
23 9 2
23 10 1
23 13 1
23 14 4
23 16 3
23 17 2
23 18 4
23 19 4
23 20 1
23 21 4
24 2 1
24 3 3
24 4 3
24 6 4
24 7 2
24 8 3
24 9 2
24 12 1
24 13 3
24 14 1
24 15 1
24 18 4
24 19 1
24 21 2
24 22 4
25 0 1
25 1 3
25 2 2
25 3 2
25 5 2
25 8 4
25 9 1
25 12 1
25 13 3
25 14 2
25 15 2
25 16 3
25 18 4
25 19 2
25 20 4
25 21 3
26 2 1
26 4 3
26 6 4
26 8 2
26 12 3
26 20 3
26 22 1
26 24 4
26 25 2
27 0 2
27 2 1
27 3 1
27 5 2
27 6 1
27 7 1
27 8 1
27 11 4
27 13 3
27 15 2
27 16 2
27 17 4
27 18 2
27 20 2
27 22 3
27 23 2
27 24 1
27 25 4
27 26 4
28 3 4
28 4 4
28 5 2
28 6 1
28 7 2
28 8 3
28 10 2
28 11 2
28 12 4
28 13 1
28 14 3
28 17 3
28 18 1
28 19 3
28 21 2
28 22 4
28 24 4
28 25 1
28 26 1
29 1 4
29 2 4
29 3 1
29 6 3
29 7 1
29 8 3
29 11 4
29 13 3
29 14 1
29 15 1
29 20 3
29 21 4
29 23 3
29 24 4
29 28 2
